SDVRP instances/custom_instances/p10_18_splitx10_0.vrp
NAME:p10_18_splitx10_
BEST_KNOWN: 0
COMMENT: 0
DIMENSION: 952
CAPACITY: 2000
EDGE_WEIGHT_FORMAT: FUNCTION
EDGE_WEIGHT_TYPE: EXACT_2D
NODE_COORD_SECTION
1 0.00000 0.00000
2 0 44
3 0 44
4 0 44
5 0 44
6 0 44
7 -3 -48
8 -3 -48
9 -3 -48
10 -3 -48
11 23 -17
12 23 -17
13 23 -17
14 23 -17
15 23 -17
16 23 -17
17 -50 -22
18 -50 -22
19 -50 -22
20 -16 -10
21 -16 -10
22 -16 -10
23 -16 -10
24 -32 18
25 -32 18
26 4 -22
27 4 -22
28 4 -22
29 4 -22
30 4 -22
31 4 -22
32 28 -20
33 28 -20
34 28 -20
35 28 -20
36 28 -20
37 28 -20
38 28 -20
39 34 4
40 34 4
41 34 4
42 34 4
43 43 -36
44 43 -36
45 43 -36
46 4 -8
47 4 -8
48 4 -8
49 4 -8
50 4 -8
51 4 -8
52 4 -8
53 22 3
54 22 3
55 22 3
56 -33 -6
57 -33 -6
58 -33 -6
59 -33 -6
60 24 -45
61 24 -45
62 24 -45
63 3 -41
64 3 -41
65 3 -41
66 13 27
67 13 27
68 13 27
69 13 27
70 13 27
71 -3 -36
72 -3 -36
73 -3 -36
74 -3 -36
75 -3 -36
76 -3 -36
77 -27 25
78 -27 25
79 -27 25
80 -27 25
81 -27 25
82 -27 25
83 -27 25
84 -27 25
85 -20 -16
86 -20 -16
87 -20 -16
88 -20 -16
89 -20 -16
90 -20 -16
91 30 1
92 30 1
93 30 1
94 -22 3
95 -22 3
96 -22 3
97 -22 3
98 -22 3
99 -22 3
100 45 -35
101 45 -35
102 45 -35
103 15 11
104 15 11
105 15 11
106 14 1
107 14 1
108 14 1
109 14 1
110 14 1
111 14 1
112 -38 6
113 -38 6
114 -38 6
115 -38 6
116 -38 6
117 -50 -31
118 -50 -31
119 -50 -31
120 -50 -31
121 -50 -31
122 -50 -31
123 -50 -31
124 -50 -31
125 -11 -11
126 -11 -11
127 -11 -11
128 -11 -11
129 -11 -11
130 -10 -26
131 -10 -26
132 -10 -26
133 -10 -26
134 -10 -26
135 -2 35
136 -2 35
137 -2 35
138 -2 35
139 -2 35
140 2 9
141 2 9
142 2 9
143 -26 -19
144 -26 -19
145 -26 -19
146 -26 -19
147 -26 -19
148 -20 3
149 -20 3
150 -20 3
151 -20 3
152 -20 3
153 -20 3
154 37 -44
155 37 -44
156 37 -44
157 44 26
158 44 26
159 44 26
160 44 26
161 44 26
162 -49 -3
163 -49 -3
164 -49 -3
165 -49 -3
166 40 14
167 40 14
168 40 14
169 40 14
170 40 14
171 17 23
172 17 23
173 17 23
174 17 23
175 20 -18
176 20 -18
177 20 -18
178 20 -18
179 20 -18
180 20 -18
181 20 -18
182 7 -40
183 7 -40
184 7 -40
185 24 36
186 24 36
187 24 36
188 24 36
189 24 36
190 24 36
191 0 -46
192 0 -46
193 0 -46
194 0 -46
195 0 -46
196 0 -46
197 0 -46
198 -17 33
199 -17 33
200 -17 33
201 -17 33
202 -17 33
203 -31 -20
204 -31 -20
205 -31 -20
206 2 16
207 2 16
208 2 16
209 2 16
210 2 16
211 2 11
212 2 11
213 -30 -16
214 -30 -16
215 -30 -16
216 -30 -16
217 -30 -16
218 -30 -16
219 31 34
220 31 34
221 31 34
222 31 34
223 31 34
224 -36 -15
225 -36 -15
226 -36 -15
227 -41 0
228 -41 0
229 -41 0
230 -41 0
231 -41 0
232 -41 0
233 -41 0
234 -41 0
235 -22 -21
236 -22 -21
237 -22 -21
238 -22 -21
239 20 48
240 20 48
241 20 48
242 34 -1
243 34 -1
244 34 -1
245 34 -1
246 34 -1
247 34 -1
248 34 -1
249 -35 -46
250 -35 -46
251 -29 -30
252 -29 -30
253 -29 -30
254 -29 -30
255 -36 41
256 -36 41
257 -36 41
258 -36 41
259 -36 41
260 -36 41
261 -36 41
262 -36 41
263 37 11
264 37 11
265 -31 -27
266 -31 -27
267 -31 -27
268 -44 35
269 -44 35
270 -44 35
271 -44 35
272 -44 35
273 -25 -5
274 -25 -5
275 -25 -5
276 -25 -5
277 -25 -5
278 -45 -44
279 -45 -44
280 -45 -44
281 -45 -44
282 -45 -44
283 48 -45
284 48 -45
285 48 -45
286 48 -45
287 48 -45
288 -35 36
289 -35 36
290 -35 36
291 -47 25
292 -47 25
293 -47 25
294 -47 25
295 -47 25
296 -47 25
297 -47 25
298 17 -15
299 17 -15
300 17 -15
301 23 -2
302 23 -2
303 23 -2
304 23 -2
305 23 -2
306 -19 -49
307 -19 -49
308 -19 -49
309 -19 -49
310 29 29
311 29 29
312 29 29
313 29 29
314 29 29
315 44 27
316 44 27
317 44 27
318 44 27
319 44 27
320 44 27
321 44 27
322 21 0
323 21 0
324 21 0
325 21 0
326 -35 5
327 -35 5
328 -35 5
329 -35 5
330 -35 5
331 -35 5
332 -35 5
333 -15 49
334 -15 49
335 -15 49
336 -15 49
337 -15 49
338 -15 49
339 12 16
340 12 16
341 12 16
342 12 16
343 12 16
344 12 16
345 12 16
346 12 16
347 -12 49
348 -12 49
349 -12 49
350 -12 49
351 -12 49
352 -12 49
353 -18 27
354 -18 27
355 -18 27
356 -18 27
357 -41 -16
358 -41 -16
359 -26 47
360 -26 47
361 -26 47
362 -26 47
363 -26 47
364 -2 31
365 -2 31
366 -2 31
367 7 -41
368 7 -41
369 -35 24
370 -35 24
371 -35 24
372 -35 24
373 44 13
374 44 13
375 -39 -47
376 -39 -47
377 -39 -47
378 -39 -47
379 -39 -47
380 42 -6
381 42 -6
382 42 -6
383 42 -6
384 -19 -18
385 -19 -18
386 -19 -18
387 -19 -18
388 -19 -18
389 -43 44
390 -43 44
391 3 -21
392 3 -21
393 3 -21
394 -26 12
395 -26 12
396 -26 12
397 -26 12
398 -26 12
399 -15 -29
400 -15 -29
401 -15 -29
402 -15 -29
403 -15 -29
404 -15 -29
405 -39 -48
406 -39 -48
407 -39 -48
408 -39 -48
409 -39 -48
410 -39 -48
411 -26 -28
412 -26 -28
413 21 -14
414 21 -14
415 21 -14
416 14 -30
417 14 -30
418 14 -30
419 14 -30
420 14 -30
421 27 -49
422 27 -49
423 27 -49
424 27 -49
425 -44 -38
426 -44 -38
427 -44 -38
428 -44 -38
429 -44 -38
430 -44 -38
431 -44 -38
432 -46 -44
433 -46 -44
434 -46 -44
435 -46 -44
436 -46 -44
437 -46 -44
438 -46 -44
439 2 17
440 2 17
441 2 17
442 2 17
443 2 17
444 2 17
445 14 1
446 14 1
447 14 1
448 14 1
449 14 1
450 14 1
451 14 1
452 -46 33
453 9 -36
454 9 -36
455 9 -36
456 9 -36
457 9 -36
458 9 -37
459 9 -37
460 9 -37
461 9 -37
462 9 -37
463 9 -37
464 -23 -13
465 -23 -13
466 -23 -13
467 -23 -13
468 -23 -13
469 -23 -13
470 -23 -13
471 -47 -48
472 -47 -48
473 -47 -48
474 -47 -48
475 -47 -48
476 -41 39
477 -41 39
478 -41 39
479 -41 39
480 -41 39
481 -41 39
482 -31 4
483 -31 4
484 -31 4
485 -31 4
486 -31 4
487 -31 4
488 -31 4
489 -43 3
490 -43 3
491 -43 3
492 -43 3
493 -43 3
494 -43 3
495 23 -32
496 23 -32
497 23 -32
498 23 -32
499 23 -32
500 23 -32
501 -47 2
502 -47 2
503 -47 2
504 -47 2
505 -47 2
506 -47 2
507 -47 2
508 -16 -44
509 -16 -44
510 -16 -44
511 22 -41
512 22 -41
513 22 -41
514 22 -41
515 22 -41
516 22 -41
517 22 -41
518 8 4
519 39 -22
520 39 -22
521 39 -22
522 29 47
523 29 47
524 29 47
525 29 47
526 29 47
527 -39 28
528 -39 28
529 -39 28
530 -39 28
531 -39 28
532 -39 28
533 25 38
534 25 38
535 25 38
536 25 38
537 25 38
538 -7 47
539 -7 47
540 -7 47
541 -7 47
542 -13 -20
543 -13 -20
544 -13 -20
545 -13 -20
546 -26 -18
547 -26 -18
548 -26 -18
549 -26 -18
550 25 42
551 25 42
552 25 42
553 25 42
554 25 42
555 25 42
556 15 -12
557 15 -12
558 15 -12
559 15 -12
560 15 -12
561 -6 40
562 -6 40
563 -6 40
564 -6 40
565 -43 -25
566 -43 -25
567 -43 -25
568 -43 -25
569 -43 -25
570 -43 -25
571 -13 7
572 -13 7
573 -13 7
574 -13 7
575 -37 -31
576 -37 -31
577 -37 -31
578 -43 -4
579 -43 -4
580 -1 36
581 -1 36
582 -1 36
583 -1 36
584 -33 -39
585 -33 -39
586 -33 -39
587 -33 -39
588 -49 28
589 -49 28
590 -49 28
591 -49 28
592 -49 28
593 -10 6
594 -10 6
595 -10 6
596 -10 6
597 -10 6
598 -10 6
599 -23 -48
600 -23 -48
601 -42 0
602 -42 0
603 -42 0
604 -42 0
605 -42 0
606 -42 0
607 -42 0
608 43 -35
609 43 -35
610 43 -35
611 43 -35
612 43 -35
613 40 -22
614 40 -22
615 40 -22
616 -3 34
617 -3 34
618 -3 34
619 -3 34
620 -3 34
621 -3 34
622 -5 -48
623 -5 -48
624 -5 -48
625 21 -34
626 21 -34
627 21 -34
628 36 23
629 36 23
630 36 23
631 36 23
632 36 23
633 36 23
634 36 23
635 50 -45
636 50 -45
637 50 -45
638 -39 -12
639 -39 -12
640 -39 -12
641 -32 31
642 -32 31
643 -32 31
644 -32 31
645 -37 42
646 -37 42
647 -37 42
648 -37 42
649 15 32
650 15 32
651 15 32
652 24 9
653 24 9
654 24 9
655 24 9
656 24 9
657 42 21
658 42 21
659 42 21
660 42 21
661 42 21
662 42 21
663 49 46
664 49 46
665 49 46
666 49 46
667 49 46
668 17 -26
669 17 -26
670 17 -26
671 17 -26
672 17 -26
673 17 -26
674 17 -26
675 23 -38
676 23 -38
677 23 -38
678 23 -38
679 23 -38
680 23 -38
681 23 -38
682 22 42
683 22 42
684 22 42
685 22 42
686 22 42
687 22 42
688 22 42
689 22 42
690 28 47
691 28 47
692 28 47
693 28 47
694 41 43
695 41 43
696 30 -10
697 30 -10
698 30 -10
699 30 -10
700 30 -10
701 30 -10
702 22 14
703 22 14
704 22 14
705 22 14
706 22 14
707 22 14
708 -33 44
709 -33 44
710 -33 44
711 -33 44
712 -33 44
713 -33 44
714 -33 44
715 -45 -38
716 -45 -38
717 -45 -38
718 -45 -38
719 -45 -38
720 -45 -38
721 38 16
722 38 16
723 38 16
724 38 16
725 38 16
726 6 -46
727 6 -46
728 6 -46
729 6 -46
730 6 -46
731 41 -38
732 41 -38
733 41 -38
734 41 -38
735 41 -38
736 41 -38
737 41 -38
738 49 5
739 49 5
740 49 5
741 49 5
742 49 5
743 2 -1
744 2 -1
745 2 -1
746 2 -1
747 2 -1
748 2 -1
749 2 -1
750 -35 -44
751 -35 -44
752 -35 -44
753 -35 -44
754 -35 -44
755 -35 -44
756 -35 -44
757 20 0
758 20 0
759 20 0
760 20 0
761 20 0
762 7 -2
763 7 -2
764 7 -2
765 7 -2
766 7 -2
767 -23 3
768 -23 3
769 -23 3
770 -23 3
771 -23 3
772 -23 3
773 -23 3
774 2 -49
775 2 -49
776 2 -49
777 2 -49
778 23 46
779 23 46
780 23 46
781 28 9
782 28 9
783 28 9
784 28 9
785 28 9
786 28 9
787 28 9
788 34 18
789 34 18
790 34 18
791 34 18
792 34 18
793 -22 49
794 -22 49
795 -22 49
796 -22 49
797 -22 49
798 25 -30
799 25 -30
800 25 -30
801 48 -18
802 21 -33
803 21 -33
804 21 -33
805 45 31
806 45 31
807 16 -42
808 16 -42
809 16 -42
810 16 -42
811 16 -42
812 -10 -45
813 -10 -45
814 -10 -45
815 -10 -45
816 -10 -45
817 45 37
818 45 37
819 45 37
820 45 37
821 45 37
822 -31 -48
823 -31 -48
824 -31 -48
825 -31 -48
826 -31 -48
827 -31 -48
828 20 -28
829 20 -28
830 20 -28
831 20 -28
832 20 -28
833 -27 -45
834 -27 -45
835 -27 -45
836 -27 -45
837 11 -22
838 11 -22
839 11 -22
840 11 -22
841 11 -22
842 11 -22
843 -42 4
844 -42 4
845 -42 4
846 -42 4
847 -42 4
848 -42 4
849 -42 40
850 -42 40
851 -42 40
852 -42 40
853 2 -14
854 2 -14
855 2 -14
856 2 -14
857 2 -14
858 2 -14
859 2 -14
860 2 -14
861 50 -45
862 50 -45
863 50 -45
864 50 -45
865 50 -45
866 50 -45
867 -17 13
868 -17 13
869 -17 13
870 -17 13
871 -17 13
872 -17 13
873 -3 -16
874 -3 -16
875 -3 -16
876 -3 -16
877 -3 -16
878 -3 -16
879 21 -26
880 21 -26
881 21 -26
882 21 -26
883 21 -26
884 -48 30
885 -48 30
886 -48 30
887 7 -29
888 7 -29
889 -31 34
890 -31 34
891 -31 34
892 -31 34
893 -31 34
894 -32 -9
895 -32 -9
896 -32 -9
897 -32 -9
898 -15 -20
899 -15 -20
900 -15 -20
901 -35 10
902 -35 10
903 -35 10
904 -35 10
905 41 27
906 41 27
907 41 27
908 41 27
909 41 27
910 41 27
911 -27 30
912 -27 30
913 -27 30
914 -27 30
915 -27 30
916 -30 -23
917 -30 -23
918 -30 -23
919 -30 -23
920 47 5
921 47 5
922 47 5
923 47 5
924 47 5
925 47 5
926 25 45
927 25 45
928 25 45
929 25 45
930 25 45
931 25 45
932 25 45
933 -47 16
934 -47 16
935 -47 16
936 28 40
937 28 40
938 28 40
939 28 40
940 -47 46
941 -47 46
942 -47 46
943 -47 46
944 -47 46
945 -47 46
946 -47 46
947 24 24
948 24 24
949 24 24
950 24 24
951 24 24
952 24 24
DEMAND_SECTION
1 0
2 400
3 400
4 100
5 20
6 20
7 200
8 100
9 20
10 10
11 400
12 200
13 100
14 20
15 20
16 20
17 400
18 100
19 10
20 200
21 20
22 20
23 10
24 400
25 20
26 400
27 400
28 20
29 20
30 20
31 10
32 400
33 400
34 100
35 20
36 20
37 20
38 20
39 200
40 20
41 20
42 20
43 400
44 200
45 10
46 400
47 400
48 100
49 20
50 20
51 20
52 10
53 200
54 100
55 10
56 400
57 400
58 100
59 10
60 400
61 400
62 200
63 200
64 100
65 20
66 400
67 400
68 100
69 20
70 20
71 400
72 200
73 100
74 20
75 20
76 20
77 400
78 400
79 100
80 20
81 20
82 20
83 20
84 10
85 400
86 20
87 20
88 20
89 20
90 10
91 400
92 200
93 100
94 400
95 400
96 100
97 20
98 20
99 20
100 400
101 20
102 20
103 400
104 400
105 100
106 200
107 100
108 20
109 20
110 20
111 20
112 400
113 200
114 20
115 20
116 10
117 400
118 200
119 100
120 20
121 20
122 20
123 20
124 10
125 400
126 100
127 20
128 20
129 10
130 200
131 20
132 20
133 20
134 20
135 200
136 20
137 20
138 20
139 20
140 400
141 400
142 20
143 400
144 20
145 20
146 20
147 10
148 400
149 100
150 20
151 20
152 20
153 10
154 200
155 100
156 20
157 400
158 200
159 20
160 20
161 20
162 400
163 400
164 100
165 10
166 400
167 200
168 20
169 20
170 20
171 400
172 100
173 20
174 20
175 400
176 400
177 100
178 20
179 20
180 20
181 10
182 400
183 200
184 10
185 200
186 100
187 20
188 20
189 20
190 20
191 400
192 200
193 100
194 20
195 20
196 20
197 20
198 200
199 100
200 20
201 20
202 10
203 400
204 400
205 20
206 400
207 400
208 20
209 20
210 20
211 400
212 20
213 400
214 400
215 20
216 20
217 20
218 20
219 400
220 100
221 20
222 20
223 10
224 200
225 100
226 20
227 400
228 200
229 100
230 20
231 20
232 20
233 20
234 10
235 400
236 400
237 20
238 10
239 400
240 400
241 20
242 400
243 400
244 100
245 20
246 20
247 20
248 10
249 400
250 200
251 400
252 400
253 20
254 10
255 400
256 400
257 100
258 20
259 20
260 20
261 20
262 10
263 400
264 400
265 400
266 200
267 10
268 400
269 200
270 20
271 20
272 10
273 200
274 20
275 20
276 20
277 10
278 200
279 100
280 20
281 20
282 10
283 400
284 200
285 20
286 20
287 20
288 400
289 400
290 100
291 400
292 400
293 100
294 20
295 20
296 20
297 20
298 400
299 200
300 20
301 400
302 200
303 20
304 20
305 10
306 200
307 100
308 20
309 10
310 200
311 100
312 20
313 20
314 10
315 400
316 400
317 100
318 20
319 20
320 20
321 20
322 400
323 200
324 20
325 10
326 400
327 200
328 100
329 20
330 20
331 20
332 10
333 400
334 100
335 20
336 20
337 20
338 20
339 400
340 400
341 100
342 20
343 20
344 20
345 20
346 10
347 400
348 100
349 20
350 20
351 20
352 20
353 400
354 20
355 20
356 20
357 400
358 20
359 400
360 200
361 20
362 20
363 10
364 400
365 100
366 20
367 400
368 20
369 400
370 400
371 100
372 20
373 400
374 100
375 200
376 20
377 20
378 20
379 20
380 200
381 100
382 20
383 10
384 400
385 400
386 100
387 20
388 10
389 400
390 400
391 400
392 400
393 10
394 400
395 400
396 100
397 20
398 20
399 400
400 400
401 100
402 20
403 20
404 20
405 400
406 20
407 20
408 20
409 20
410 10
411 400
412 20
413 400
414 200
415 10
416 400
417 20
418 20
419 20
420 10
421 200
422 20
423 20
424 20
425 400
426 200
427 100
428 20
429 20
430 20
431 20
432 400
433 200
434 100
435 20
436 20
437 20
438 20
439 400
440 200
441 20
442 20
443 20
444 20
445 400
446 200
447 20
448 20
449 20
450 20
451 10
452 400
453 400
454 200
455 100
456 20
457 20
458 400
459 20
460 20
461 20
462 20
463 10
464 400
465 100
466 20
467 20
468 20
469 20
470 10
471 400
472 200
473 20
474 20
475 20
476 400
477 200
478 20
479 20
480 20
481 10
482 400
483 200
484 20
485 20
486 20
487 20
488 10
489 200
490 100
491 20
492 20
493 20
494 10
495 400
496 20
497 20
498 20
499 20
500 10
501 200
502 100
503 20
504 20
505 20
506 20
507 10
508 400
509 400
510 200
511 400
512 400
513 100
514 20
515 20
516 20
517 10
518 400
519 400
520 20
521 10
522 400
523 400
524 20
525 20
526 20
527 400
528 20
529 20
530 20
531 20
532 10
533 400
534 200
535 20
536 20
537 10
538 400
539 200
540 20
541 20
542 400
543 400
544 100
545 20
546 400
547 100
548 20
549 10
550 200
551 100
552 20
553 20
554 20
555 10
556 200
557 100
558 20
559 20
560 20
561 400
562 20
563 20
564 10
565 400
566 200
567 20
568 20
569 20
570 10
571 400
572 200
573 100
574 20
575 400
576 400
577 100
578 400
579 10
580 400
581 200
582 100
583 10
584 400
585 400
586 100
587 10
588 200
589 100
590 20
591 20
592 10
593 200
594 100
595 20
596 20
597 20
598 10
599 400
600 200
601 200
602 100
603 20
604 20
605 20
606 20
607 10
608 400
609 200
610 20
611 20
612 20
613 400
614 20
615 20
616 400
617 200
618 100
619 20
620 20
621 20
622 400
623 200
624 20
625 400
626 400
627 200
628 400
629 100
630 20
631 20
632 20
633 20
634 10
635 400
636 20
637 10
638 400
639 100
640 10
641 200
642 100
643 20
644 10
645 400
646 200
647 100
648 10
649 400
650 400
651 20
652 400
653 400
654 100
655 20
656 10
657 200
658 100
659 20
660 20
661 20
662 10
663 200
664 20
665 20
666 20
667 20
668 400
669 400
670 100
671 20
672 20
673 20
674 20
675 400
676 400
677 100
678 20
679 20
680 20
681 10
682 400
683 200
684 100
685 20
686 20
687 20
688 20
689 10
690 200
691 20
692 20
693 20
694 400
695 400
696 400
697 400
698 100
699 20
700 20
701 20
702 200
703 20
704 20
705 20
706 20
707 10
708 400
709 100
710 20
711 20
712 20
713 20
714 10
715 400
716 400
717 20
718 20
719 20
720 20
721 400
722 400
723 100
724 20
725 10
726 200
727 100
728 20
729 20
730 10
731 400
732 200
733 100
734 20
735 20
736 20
737 10
738 400
739 200
740 20
741 20
742 10
743 400
744 200
745 20
746 20
747 20
748 20
749 10
750 400
751 200
752 20
753 20
754 20
755 20
756 10
757 400
758 200
759 100
760 20
761 20
762 400
763 400
764 100
765 20
766 10
767 400
768 400
769 20
770 20
771 20
772 20
773 10
774 400
775 400
776 100
777 10
778 400
779 400
780 100
781 400
782 200
783 100
784 20
785 20
786 20
787 10
788 400
789 100
790 20
791 20
792 10
793 400
794 100
795 20
796 20
797 10
798 400
799 200
800 20
801 400
802 200
803 100
804 10
805 400
806 400
807 400
808 400
809 100
810 20
811 20
812 400
813 200
814 100
815 20
816 10
817 400
818 400
819 20
820 20
821 10
822 200
823 100
824 20
825 20
826 20
827 10
828 400
829 200
830 100
831 20
832 10
833 400
834 100
835 20
836 10
837 400
838 400
839 100
840 20
841 20
842 10
843 400
844 100
845 20
846 20
847 20
848 10
849 400
850 200
851 20
852 10
853 400
854 400
855 100
856 20
857 20
858 20
859 20
860 10
861 200
862 100
863 20
864 20
865 20
866 20
867 200
868 100
869 20
870 20
871 20
872 10
873 400
874 20
875 20
876 20
877 20
878 10
879 200
880 20
881 20
882 20
883 20
884 400
885 20
886 20
887 400
888 20
889 400
890 100
891 20
892 20
893 10
894 200
895 20
896 20
897 20
898 400
899 400
900 100
901 400
902 100
903 20
904 20
905 400
906 200
907 100
908 20
909 20
910 10
911 400
912 400
913 100
914 20
915 20
916 400
917 200
918 20
919 10
920 400
921 200
922 100
923 20
924 20
925 10
926 400
927 200
928 20
929 20
930 20
931 20
932 10
933 200
934 100
935 20
936 400
937 100
938 20
939 10
940 400
941 400
942 100
943 20
944 20
945 20
946 10
947 400
948 400
949 20
950 20
951 20
952 20
DEPOT_SECTION
1
-1
EOF