SDVRP instances/custom_instances/p10_18_splitx10_0.sol
951 -14 10 35 37 36 32 33 31 413 414 412 -21 22 20 19 84 386 384 385 383 387 126 124 -28 27 30 29 25 391 390 392 876 874 875 872 873 877 -34 609 101 100 99 860 862 864 635 636 865 863 634 861 283 284 285 286 282 734 -41 39 40 38 242 247 245 246 244 241 243 92 91 90 760 -45 51 50 49 48 47 46 853 852 854 -54 53 52 784 780 782 781 786 651 653 655 654 652 -58 55 893 895 894 896 214 215 216 217 212 213 547 545 -62 726 728 725 729 727 775 773 776 774 74 70 73 72 -68 69 65 66 67 3 5 2 1 4 582 581 -75 71 815 814 813 812 811 508 509 507 -85 88 86 89 87 142 144 145 143 146 916 918 915 203 204 202 -102 104 103 343 338 339 345 341 342 344 340 -127 128 125 897 898 899 542 544 541 543 -132 133 131 130 129 401 398 399 235 234 237 236 -139 141 140 -152 148 149 151 150 147 98 95 97 94 93 96 769 770 767 768 772 -153 155 154 422 420 423 421 61 59 60 676 678 801 -169 165 167 168 166 373 372 263 262 783 785 -171 172 173 170 949 950 946 947 951 948 517 -183 182 181 367 366 810 809 806 807 808 -184 532 534 935 937 936 938 218 219 309 310 312 313 311 -188 187 189 185 186 525 521 523 522 524 689 691 690 692 931 926 929 927 930 928 925 -210 211 207 206 209 208 205 442 438 443 441 439 440 -220 222 221 693 694 664 662 663 666 665 820 816 817 819 818 -225 224 223 356 637 638 639 56 57 272 273 274 275 276 -228 226 232 231 604 602 606 605 600 601 603 490 491 488 489 492 493 844 843 842 846 845 847 485 484 487 483 486 -229 233 230 227 506 504 505 501 502 500 503 163 161 164 162 578 577 -238 240 239 779 777 778 533 536 535 -248 249 404 409 406 407 405 408 374 755 749 752 753 751 750 754 -264 265 576 574 584 585 583 -266 428 429 427 430 277 281 280 278 279 432 434 437 431 436 435 433 472 473 470 474 471 378 375 377 376 586 -299 297 298 179 174 178 175 180 176 177 555 556 -304 303 302 301 300 324 322 323 321 758 759 757 756 -305 306 307 308 598 599 822 821 825 826 823 824 834 833 835 832 402 400 403 -320 316 319 314 804 805 905 907 906 701 702 704 703 706 705 -326 328 327 331 329 330 325 112 113 114 111 115 900 902 903 901 -354 201 197 199 200 198 332 334 333 337 335 539 540 537 560 563 561 562 618 617 620 619 -355 352 353 912 911 77 76 595 594 592 596 -357 17 18 16 120 117 122 116 123 121 119 118 569 564 566 567 565 568 -358 361 362 360 359 793 795 794 792 796 336 346 347 351 349 348 350 538 -365 363 364 615 616 135 137 138 136 134 580 579 -369 371 368 370 24 23 573 571 570 -389 388 942 943 940 944 945 941 939 849 850 480 -396 394 395 397 393 481 482 766 771 -411 410 250 251 252 253 546 548 468 464 467 466 463 465 469 -416 418 417 419 415 624 625 626 498 494 497 496 499 495 831 830 -447 108 449 450 106 445 444 448 105 109 446 107 110 762 765 761 763 764 -455 454 456 63 64 193 194 192 196 195 190 191 9 6 8 7 621 622 623 -510 514 515 516 513 512 511 677 680 675 674 679 803 802 -520 519 518 613 614 612 800 381 380 382 379 695 -550 552 554 551 553 549 684 687 685 688 683 681 686 682 648 649 650 -558 559 557 12 15 13 11 879 882 881 878 880 798 799 797 829 827 828 -572 868 871 867 81 83 78 82 79 80 640 643 289 288 287 888 890 892 891 914 -575 426 424 425 716 717 719 715 714 718 917 -593 597 866 884 885 591 590 589 588 587 295 290 296 291 292 293 294 932 933 934 -610 611 607 608 43 42 44 733 736 730 735 732 731 -642 641 477 476 479 475 478 848 851 646 647 644 645 889 -671 670 668 667 669 672 673 838 836 837 841 840 839 -699 696 700 698 697 739 741 740 737 738 921 919 920 924 923 922 -707 710 711 712 713 708 709 258 259 254 257 261 255 256 260 913 910 -722 720 723 721 724 633 627 628 631 630 632 629 790 787 789 791 -742 746 744 -743 745 747 -748 -788 657 656 659 658 661 660 158 157 156 160 159 318 317 315 904 909 908 -855 859 857 858 856 26 460 458 462 457 461 459 453 452 887 886 -869 870 529 530 531 527 528 526 270 268 267 271 269 451 883 0 





OBJ=
5862.376
BEST_KNOWN=
0.000